
Gurobi 7.0.2 (linux64, Python) logging started Mon May  8 17:08:57 2017


Gurobi 7.0.2 (linux64, Python) logging started Mon May  8 17:48:18 2017


Gurobi 7.0.2 (linux64, Python) logging started Mon May  8 17:50:49 2017


Gurobi 7.0.2 (linux64, Python) logging started Mon May  8 17:51:00 2017


Gurobi 7.0.2 (linux64, Python) logging started Mon May  8 17:51:28 2017

